31
1
2
9
3
4
1
5
22
13
2
20
6
5
7
8
6
24
3
5
9
18
9
21
19
10
11
28
12
10
27
8
13
26
29
3
14
21
15
20
15
25
28
7
16
2
23
23
11
17
26
17
16
30
30
14
1
24
17
18
19
12
20
29
21
25
10
22
31
25
4
